c description: Tseitin formula on Random 6-regular graph of 50 vertices, with odd charge
c generator: CNFgen (0.9.2)
c copyright: (C) 2012-2022 Massimo Lauria <massimo.lauria@uniroma1.it>
c url: https://massimolauria.net/cnfgen
c command line: cnfgen tseitin 50 6
c
p cnf 150 1600
1 2 3 4 5 6 0
1 2 3 4 -5 -6 0
1 2 3 -4 5 -6 0
1 2 3 -4 -5 6 0
1 2 -3 4 5 -6 0
1 2 -3 4 -5 6 0
1 2 -3 -4 5 6 0
1 2 -3 -4 -5 -6 0
1 -2 3 4 5 -6 0
1 -2 3 4 -5 6 0
1 -2 3 -4 5 6 0
1 -2 3 -4 -5 -6 0
1 -2 -3 4 5 6 0
1 -2 -3 4 -5 -6 0
1 -2 -3 -4 5 -6 0
1 -2 -3 -4 -5 6 0
-1 2 3 4 5 -6 0
-1 2 3 4 -5 6 0
-1 2 3 -4 5 6 0
-1 2 3 -4 -5 -6 0
-1 2 -3 4 5 6 0
-1 2 -3 4 -5 -6 0
-1 2 -3 -4 5 -6 0
-1 2 -3 -4 -5 6 0
-1 -2 3 4 5 6 0
-1 -2 3 4 -5 -6 0
-1 -2 3 -4 5 -6 0
-1 -2 3 -4 -5 6 0
-1 -2 -3 4 5 -6 0
-1 -2 -3 4 -5 6 0
-1 -2 -3 -4 5 6 0
-1 -2 -3 -4 -5 -6 0
7 8 9 10 11 12 0
7 8 9 10 -11 -12 0
7 8 9 -10 11 -12 0
7 8 9 -10 -11 12 0
7 8 -9 10 11 -12 0
7 8 -9 10 -11 12 0
7 8 -9 -10 11 12 0
7 8 -9 -10 -11 -12 0
7 -8 9 10 11 -12 0
7 -8 9 10 -11 12 0
7 -8 9 -10 11 12 0
7 -8 9 -10 -11 -12 0
7 -8 -9 10 11 12 0
7 -8 -9 10 -11 -12 0
7 -8 -9 -10 11 -12 0
7 -8 -9 -10 -11 12 0
-7 8 9 10 11 -12 0
-7 8 9 10 -11 12 0
-7 8 9 -10 11 12 0
-7 8 9 -10 -11 -12 0
-7 8 -9 10 11 12 0
-7 8 -9 10 -11 -12 0
-7 8 -9 -10 11 -12 0
-7 8 -9 -10 -11 12 0
-7 -8 9 10 11 12 0
-7 -8 9 10 -11 -12 0
-7 -8 9 -10 11 -12 0
-7 -8 9 -10 -11 12 0
-7 -8 -9 10 11 -12 0
-7 -8 -9 10 -11 12 0
-7 -8 -9 -10 11 12 0
-7 -8 -9 -10 -11 -12 0
13 14 15 16 17 -18 0
13 14 15 16 -17 18 0
13 14 15 -16 17 18 0
13 14 15 -16 -17 -18 0
13 14 -15 16 17 18 0
13 14 -15 16 -17 -18 0
13 14 -15 -16 17 -18 0
13 14 -15 -16 -17 18 0
13 -14 15 16 17 18 0
13 -14 15 16 -17 -18 0
13 -14 15 -16 17 -18 0
13 -14 15 -16 -17 18 0
13 -14 -15 16 17 -18 0
13 -14 -15 16 -17 18 0
13 -14 -15 -16 17 18 0
13 -14 -15 -16 -17 -18 0
-13 14 15 16 17 18 0
-13 14 15 16 -17 -18 0
-13 14 15 -16 17 -18 0
-13 14 15 -16 -17 18 0
-13 14 -15 16 17 -18 0
-13 14 -15 16 -17 18 0
-13 14 -15 -16 17 18 0
-13 14 -15 -16 -17 -18 0
-13 -14 15 16 17 -18 0
-13 -14 15 16 -17 18 0
-13 -14 15 -16 17 18 0
-13 -14 15 -16 -17 -18 0
-13 -14 -15 16 17 18 0
-13 -14 -15 16 -17 -18 0
-13 -14 -15 -16 17 -18 0
-13 -14 -15 -16 -17 18 0
19 20 21 22 23 -24 0
19 20 21 22 -23 24 0
19 20 21 -22 23 24 0
19 20 21 -22 -23 -24 0
19 20 -21 22 23 24 0
19 20 -21 22 -23 -24 0
19 20 -21 -22 23 -24 0
19 20 -21 -22 -23 24 0
19 -20 21 22 23 24 0
19 -20 21 22 -23 -24 0
19 -20 21 -22 23 -24 0
19 -20 21 -22 -23 24 0
19 -20 -21 22 23 -24 0
19 -20 -21 22 -23 24 0
19 -20 -21 -22 23 24 0
19 -20 -21 -22 -23 -24 0
-19 20 21 22 23 24 0
-19 20 21 22 -23 -24 0
-19 20 21 -22 23 -24 0
-19 20 21 -22 -23 24 0
-19 20 -21 22 23 -24 0
-19 20 -21 22 -23 24 0
-19 20 -21 -22 23 24 0
-19 20 -21 -22 -23 -24 0
-19 -20 21 22 23 -24 0
-19 -20 21 22 -23 24 0
-19 -20 21 -22 23 24 0
-19 -20 21 -22 -23 -24 0
-19 -20 -21 22 23 24 0
-19 -20 -21 22 -23 -24 0
-19 -20 -21 -22 23 -24 0
-19 -20 -21 -22 -23 24 0
25 26 27 28 29 30 0
25 26 27 28 -29 -30 0
25 26 27 -28 29 -30 0
25 26 27 -28 -29 30 0
25 26 -27 28 29 -30 0
25 26 -27 28 -29 30 0
25 26 -27 -28 29 30 0
25 26 -27 -28 -29 -30 0
25 -26 27 28 29 -30 0
25 -26 27 28 -29 30 0
25 -26 27 -28 29 30 0
25 -26 27 -28 -29 -30 0
25 -26 -27 28 29 30 0
25 -26 -27 28 -29 -30 0
25 -26 -27 -28 29 -30 0
25 -26 -27 -28 -29 30 0
-25 26 27 28 29 -30 0
-25 26 27 28 -29 30 0
-25 26 27 -28 29 30 0
-25 26 27 -28 -29 -30 0
-25 26 -27 28 29 30 0
-25 26 -27 28 -29 -30 0
-25 26 -27 -28 29 -30 0
-25 26 -27 -28 -29 30 0
-25 -26 27 28 29 30 0
-25 -26 27 28 -29 -30 0
-25 -26 27 -28 29 -30 0
-25 -26 27 -28 -29 30 0
-25 -26 -27 28 29 -30 0
-25 -26 -27 28 -29 30 0
-25 -26 -27 -28 29 30 0
-25 -26 -27 -28 -29 -30 0
19 31 32 33 34 35 0
19 31 32 33 -34 -35 0
19 31 32 -33 34 -35 0
19 31 32 -33 -34 35 0
19 31 -32 33 34 -35 0
19 31 -32 33 -34 35 0
19 31 -32 -33 34 35 0
19 31 -32 -33 -34 -35 0
19 -31 32 33 34 -35 0
19 -31 32 33 -34 35 0
19 -31 32 -33 34 35 0
19 -31 32 -33 -34 -35 0
19 -31 -32 33 34 35 0
19 -31 -32 33 -34 -35 0
19 -31 -32 -33 34 -35 0
19 -31 -32 -33 -34 35 0
-19 31 32 33 34 -35 0
-19 31 32 33 -34 35 0
-19 31 32 -33 34 35 0
-19 31 32 -33 -34 -35 0
-19 31 -32 33 34 35 0
-19 31 -32 33 -34 -35 0
-19 31 -32 -33 34 -35 0
-19 31 -32 -33 -34 35 0
-19 -31 32 33 34 35 0
-19 -31 32 33 -34 -35 0
-19 -31 32 -33 34 -35 0
-19 -31 32 -33 -34 35 0
-19 -31 -32 33 34 -35 0
-19 -31 -32 33 -34 35 0
-19 -31 -32 -33 34 35 0
-19 -31 -32 -33 -34 -35 0
13 36 37 38 39 40 0
13 36 37 38 -39 -40 0
13 36 37 -38 39 -40 0
13 36 37 -38 -39 40 0
13 36 -37 38 39 -40 0
13 36 -37 38 -39 40 0
13 36 -37 -38 39 40 0
13 36 -37 -38 -39 -40 0
13 -36 37 38 39 -40 0
13 -36 37 38 -39 40 0
13 -36 37 -38 39 40 0
13 -36 37 -38 -39 -40 0
13 -36 -37 38 39 40 0
13 -36 -37 38 -39 -40 0
13 -36 -37 -38 39 -40 0
13 -36 -37 -38 -39 40 0
-13 36 37 38 39 -40 0
-13 36 37 38 -39 40 0
-13 36 37 -38 39 40 0
-13 36 37 -38 -39 -40 0
-13 36 -37 38 39 40 0
-13 36 -37 38 -39 -40 0
-13 36 -37 -38 39 -40 0
-13 36 -37 -38 -39 40 0
-13 -36 37 38 39 40 0
-13 -36 37 38 -39 -40 0
-13 -36 37 -38 39 -40 0
-13 -36 37 -38 -39 40 0
-13 -36 -37 38 39 -40 0
-13 -36 -37 38 -39 40 0
-13 -36 -37 -38 39 40 0
-13 -36 -37 -38 -39 -40 0
14 25 41 42 43 44 0
14 25 41 42 -43 -44 0
14 25 41 -42 43 -44 0
14 25 41 -42 -43 44 0
14 25 -41 42 43 -44 0
14 25 -41 42 -43 44 0
14 25 -41 -42 43 44 0
14 25 -41 -42 -43 -44 0
14 -25 41 42 43 -44 0
14 -25 41 42 -43 44 0
14 -25 41 -42 43 44 0
14 -25 41 -42 -43 -44 0
14 -25 -41 42 43 44 0
14 -25 -41 42 -43 -44 0
14 -25 -41 -42 43 -44 0
14 -25 -41 -42 -43 44 0
-14 25 41 42 43 -44 0
-14 25 41 42 -43 44 0
-14 25 41 -42 43 44 0
-14 25 41 -42 -43 -44 0
-14 25 -41 42 43 44 0
-14 25 -41 42 -43 -44 0
-14 25 -41 -42 43 -44 0
-14 25 -41 -42 -43 44 0
-14 -25 41 42 43 44 0
-14 -25 41 42 -43 -44 0
-14 -25 41 -42 43 -44 0
-14 -25 41 -42 -43 44 0
-14 -25 -41 42 43 -44 0
-14 -25 -41 42 -43 44 0
-14 -25 -41 -42 43 44 0
-14 -25 -41 -42 -43 -44 0
26 31 45 46 47 48 0
26 31 45 46 -47 -48 0
26 31 45 -46 47 -48 0
26 31 45 -46 -47 48 0
26 31 -45 46 47 -48 0
26 31 -45 46 -47 48 0
26 31 -45 -46 47 48 0
26 31 -45 -46 -47 -48 0
26 -31 45 46 47 -48 0
26 -31 45 46 -47 48 0
26 -31 45 -46 47 48 0
26 -31 45 -46 -47 -48 0
26 -31 -45 46 47 48 0
26 -31 -45 46 -47 -48 0
26 -31 -45 -46 47 -48 0
26 -31 -45 -46 -47 48 0
-26 31 45 46 47 -48 0
-26 31 45 46 -47 48 0
-26 31 45 -46 47 48 0
-26 31 45 -46 -47 -48 0
-26 31 -45 46 47 48 0
-26 31 -45 46 -47 -48 0
-26 31 -45 -46 47 -48 0
-26 31 -45 -46 -47 48 0
-26 -31 45 46 47 48 0
-26 -31 45 46 -47 -48 0
-26 -31 45 -46 47 -48 0
-26 -31 45 -46 -47 48 0
-26 -31 -45 46 47 -48 0
-26 -31 -45 46 -47 48 0
-26 -31 -45 -46 47 48 0
-26 -31 -45 -46 -47 -48 0
20 49 50 51 52 -53 0
20 49 50 51 -52 53 0
20 49 50 -51 52 53 0
20 49 50 -51 -52 -53 0
20 49 -50 51 52 53 0
20 49 -50 51 -52 -53 0
20 49 -50 -51 52 -53 0
20 49 -50 -51 -52 53 0
20 -49 50 51 52 53 0
20 -49 50 51 -52 -53 0
20 -49 50 -51 52 -53 0
20 -49 50 -51 -52 53 0
20 -49 -50 51 52 -53 0
20 -49 -50 51 -52 53 0
20 -49 -50 -51 52 53 0
20 -49 -50 -51 -52 -53 0
-20 49 50 51 52 53 0
-20 49 50 51 -52 -53 0
-20 49 50 -51 52 -53 0
-20 49 50 -51 -52 53 0
-20 49 -50 51 52 -53 0
-20 49 -50 51 -52 53 0
-20 49 -50 -51 52 53 0
-20 49 -50 -51 -52 -53 0
-20 -49 50 51 52 -53 0
-20 -49 50 51 -52 53 0
-20 -49 50 -51 52 53 0
-20 -49 50 -51 -52 -53 0
-20 -49 -50 51 52 53 0
-20 -49 -50 51 -52 -53 0
-20 -49 -50 -51 52 -53 0
-20 -49 -50 -51 -52 53 0
7 54 55 56 57 -58 0
7 54 55 56 -57 58 0
7 54 55 -56 57 58 0
7 54 55 -56 -57 -58 0
7 54 -55 56 57 58 0
7 54 -55 56 -57 -58 0
7 54 -55 -56 57 -58 0
7 54 -55 -56 -57 58 0
7 -54 55 56 57 58 0
7 -54 55 56 -57 -58 0
7 -54 55 -56 57 -58 0
7 -54 55 -56 -57 58 0
7 -54 -55 56 57 -58 0
7 -54 -55 56 -57 58 0
7 -54 -55 -56 57 58 0
7 -54 -55 -56 -57 -58 0
-7 54 55 56 57 58 0
-7 54 55 56 -57 -58 0
-7 54 55 -56 57 -58 0
-7 54 55 -56 -57 58 0
-7 54 -55 56 57 -58 0
-7 54 -55 56 -57 58 0
-7 54 -55 -56 57 58 0
-7 54 -55 -56 -57 -58 0
-7 -54 55 56 57 -58 0
-7 -54 55 56 -57 58 0
-7 -54 55 -56 57 58 0
-7 -54 55 -56 -57 -58 0
-7 -54 -55 56 57 58 0
-7 -54 -55 56 -57 -58 0
-7 -54 -55 -56 57 -58 0
-7 -54 -55 -56 -57 58 0
1 59 60 61 62 63 0
1 59 60 61 -62 -63 0
1 59 60 -61 62 -63 0
1 59 60 -61 -62 63 0
1 59 -60 61 62 -63 0
1 59 -60 61 -62 63 0
1 59 -60 -61 62 63 0
1 59 -60 -61 -62 -63 0
1 -59 60 61 62 -63 0
1 -59 60 61 -62 63 0
1 -59 60 -61 62 63 0
1 -59 60 -61 -62 -63 0
1 -59 -60 61 62 63 0
1 -59 -60 61 -62 -63 0
1 -59 -60 -61 62 -63 0
1 -59 -60 -61 -62 63 0
-1 59 60 61 62 -63 0
-1 59 60 61 -62 63 0
-1 59 60 -61 62 63 0
-1 59 60 -61 -62 -63 0
-1 59 -60 61 62 63 0
-1 59 -60 61 -62 -63 0
-1 59 -60 -61 62 -63 0
-1 59 -60 -61 -62 63 0
-1 -59 60 61 62 63 0
-1 -59 60 61 -62 -63 0
-1 -59 60 -61 62 -63 0
-1 -59 60 -61 -62 63 0
-1 -59 -60 61 62 -63 0
-1 -59 -60 61 -62 63 0
-1 -59 -60 -61 62 63 0
-1 -59 -60 -61 -62 -63 0
64 65 66 67 68 69 0
64 65 66 67 -68 -69 0
64 65 66 -67 68 -69 0
64 65 66 -67 -68 69 0
64 65 -66 67 68 -69 0
64 65 -66 67 -68 69 0
64 65 -66 -67 68 69 0
64 65 -66 -67 -68 -69 0
64 -65 66 67 68 -69 0
64 -65 66 67 -68 69 0
64 -65 66 -67 68 69 0
64 -65 66 -67 -68 -69 0
64 -65 -66 67 68 69 0
64 -65 -66 67 -68 -69 0
64 -65 -66 -67 68 -69 0
64 -65 -66 -67 -68 69 0
-64 65 66 67 68 -69 0
-64 65 66 67 -68 69 0
-64 65 66 -67 68 69 0
-64 65 66 -67 -68 -69 0
-64 65 -66 67 68 69 0
-64 65 -66 67 -68 -69 0
-64 65 -66 -67 68 -69 0
-64 65 -66 -67 -68 69 0
-64 -65 66 67 68 69 0
-64 -65 66 67 -68 -69 0
-64 -65 66 -67 68 -69 0
-64 -65 66 -67 -68 69 0
-64 -65 -66 67 68 -69 0
-64 -65 -66 67 -68 69 0
-64 -65 -66 -67 68 69 0
-64 -65 -66 -67 -68 -69 0
45 70 71 72 73 -74 0
45 70 71 72 -73 74 0
45 70 71 -72 73 74 0
45 70 71 -72 -73 -74 0
45 70 -71 72 73 74 0
45 70 -71 72 -73 -74 0
45 70 -71 -72 73 -74 0
45 70 -71 -72 -73 74 0
45 -70 71 72 73 74 0
45 -70 71 72 -73 -74 0
45 -70 71 -72 73 -74 0
45 -70 71 -72 -73 74 0
45 -70 -71 72 73 -74 0
45 -70 -71 72 -73 74 0
45 -70 -71 -72 73 74 0
45 -70 -71 -72 -73 -74 0
-45 70 71 72 73 74 0
-45 70 71 72 -73 -74 0
-45 70 71 -72 73 -74 0
-45 70 71 -72 -73 74 0
-45 70 -71 72 73 -74 0
-45 70 -71 72 -73 74 0
-45 70 -71 -72 73 74 0
-45 70 -71 -72 -73 -74 0
-45 -70 71 72 73 -74 0
-45 -70 71 72 -73 74 0
-45 -70 71 -72 73 74 0
-45 -70 71 -72 -73 -74 0
-45 -70 -71 72 73 74 0
-45 -70 -71 72 -73 -74 0
-45 -70 -71 -72 73 -74 0
-45 -70 -71 -72 -73 74 0
21 64 75 76 77 -78 0
21 64 75 76 -77 78 0
21 64 75 -76 77 78 0
21 64 75 -76 -77 -78 0
21 64 -75 76 77 78 0
21 64 -75 76 -77 -78 0
21 64 -75 -76 77 -78 0
21 64 -75 -76 -77 78 0
21 -64 75 76 77 78 0
21 -64 75 76 -77 -78 0
21 -64 75 -76 77 -78 0
21 -64 75 -76 -77 78 0
21 -64 -75 76 77 -78 0
21 -64 -75 76 -77 78 0
21 -64 -75 -76 77 78 0
21 -64 -75 -76 -77 -78 0
-21 64 75 76 77 78 0
-21 64 75 76 -77 -78 0
-21 64 75 -76 77 -78 0
-21 64 75 -76 -77 78 0
-21 64 -75 76 77 -78 0
-21 64 -75 76 -77 78 0
-21 64 -75 -76 77 78 0
-21 64 -75 -76 -77 -78 0
-21 -64 75 76 77 -78 0
-21 -64 75 76 -77 78 0
-21 -64 75 -76 77 78 0
-21 -64 75 -76 -77 -78 0
-21 -64 -75 76 77 78 0
-21 -64 -75 76 -77 -78 0
-21 -64 -75 -76 77 -78 0
-21 -64 -75 -76 -77 78 0
22 79 80 81 82 83 0
22 79 80 81 -82 -83 0
22 79 80 -81 82 -83 0
22 79 80 -81 -82 83 0
22 79 -80 81 82 -83 0
22 79 -80 81 -82 83 0
22 79 -80 -81 82 83 0
22 79 -80 -81 -82 -83 0
22 -79 80 81 82 -83 0
22 -79 80 81 -82 83 0
22 -79 80 -81 82 83 0
22 -79 80 -81 -82 -83 0
22 -79 -80 81 82 83 0
22 -79 -80 81 -82 -83 0
22 -79 -80 -81 82 -83 0
22 -79 -80 -81 -82 83 0
-22 79 80 81 82 -83 0
-22 79 80 81 -82 83 0
-22 79 80 -81 82 83 0
-22 79 80 -81 -82 -83 0
-22 79 -80 81 82 83 0
-22 79 -80 81 -82 -83 0
-22 79 -80 -81 82 -83 0
-22 79 -80 -81 -82 83 0
-22 -79 80 81 82 83 0
-22 -79 80 81 -82 -83 0
-22 -79 80 -81 82 -83 0
-22 -79 80 -81 -82 83 0
-22 -79 -80 81 82 -83 0
-22 -79 -80 81 -82 83 0
-22 -79 -80 -81 82 83 0
-22 -79 -80 -81 -82 -83 0
8 27 84 85 86 -87 0
8 27 84 85 -86 87 0
8 27 84 -85 86 87 0
8 27 84 -85 -86 -87 0
8 27 -84 85 86 87 0
8 27 -84 85 -86 -87 0
8 27 -84 -85 86 -87 0
8 27 -84 -85 -86 87 0
8 -27 84 85 86 87 0
8 -27 84 85 -86 -87 0
8 -27 84 -85 86 -87 0
8 -27 84 -85 -86 87 0
8 -27 -84 85 86 -87 0
8 -27 -84 85 -86 87 0
8 -27 -84 -85 86 87 0
8 -27 -84 -85 -86 -87 0
-8 27 84 85 86 87 0
-8 27 84 85 -86 -87 0
-8 27 84 -85 86 -87 0
-8 27 84 -85 -86 87 0
-8 27 -84 85 86 -87 0
-8 27 -84 85 -86 87 0
-8 27 -84 -85 86 87 0
-8 27 -84 -85 -86 -87 0
-8 -27 84 85 86 -87 0
-8 -27 84 85 -86 87 0
-8 -27 84 -85 86 87 0
-8 -27 84 -85 -86 -87 0
-8 -27 -84 85 86 87 0
-8 -27 -84 85 -86 -87 0
-8 -27 -84 -85 86 -87 0
-8 -27 -84 -85 -86 87 0
32 59 84 88 89 90 0
32 59 84 88 -89 -90 0
32 59 84 -88 89 -90 0
32 59 84 -88 -89 90 0
32 59 -84 88 89 -90 0
32 59 -84 88 -89 90 0
32 59 -84 -88 89 90 0
32 59 -84 -88 -89 -90 0
32 -59 84 88 89 -90 0
32 -59 84 88 -89 90 0
32 -59 84 -88 89 90 0
32 -59 84 -88 -89 -90 0
32 -59 -84 88 89 90 0
32 -59 -84 88 -89 -90 0
32 -59 -84 -88 89 -90 0
32 -59 -84 -88 -89 90 0
-32 59 84 88 89 -90 0
-32 59 84 88 -89 90 0
-32 59 84 -88 89 90 0
-32 59 84 -88 -89 -90 0
-32 59 -84 88 89 90 0
-32 59 -84 88 -89 -90 0
-32 59 -84 -88 89 -90 0
-32 59 -84 -88 -89 90 0
-32 -59 84 88 89 90 0
-32 -59 84 88 -89 -90 0
-32 -59 84 -88 89 -90 0
-32 -59 84 -88 -89 90 0
-32 -59 -84 88 89 -90 0
-32 -59 -84 88 -89 90 0
-32 -59 -84 -88 89 90 0
-32 -59 -84 -88 -89 -90 0
2 28 91 92 93 94 0
2 28 91 92 -93 -94 0
2 28 91 -92 93 -94 0
2 28 91 -92 -93 94 0
2 28 -91 92 93 -94 0
2 28 -91 92 -93 94 0
2 28 -91 -92 93 94 0
2 28 -91 -92 -93 -94 0
2 -28 91 92 93 -94 0
2 -28 91 92 -93 94 0
2 -28 91 -92 93 94 0
2 -28 91 -92 -93 -94 0
2 -28 -91 92 93 94 0
2 -28 -91 92 -93 -94 0
2 -28 -91 -92 93 -94 0
2 -28 -91 -92 -93 94 0
-2 28 91 92 93 -94 0
-2 28 91 92 -93 94 0
-2 28 91 -92 93 94 0
-2 28 91 -92 -93 -94 0
-2 28 -91 92 93 94 0
-2 28 -91 92 -93 -94 0
-2 28 -91 -92 93 -94 0
-2 28 -91 -92 -93 94 0
-2 -28 91 92 93 94 0
-2 -28 91 92 -93 -94 0
-2 -28 91 -92 93 -94 0
-2 -28 91 -92 -93 94 0
-2 -28 -91 92 93 -94 0
-2 -28 -91 92 -93 94 0
-2 -28 -91 -92 93 94 0
-2 -28 -91 -92 -93 -94 0
36 46 54 95 96 -97 0
36 46 54 95 -96 97 0
36 46 54 -95 96 97 0
36 46 54 -95 -96 -97 0
36 46 -54 95 96 97 0
36 46 -54 95 -96 -97 0
36 46 -54 -95 96 -97 0
36 46 -54 -95 -96 97 0
36 -46 54 95 96 97 0
36 -46 54 95 -96 -97 0
36 -46 54 -95 96 -97 0
36 -46 54 -95 -96 97 0
36 -46 -54 95 96 -97 0
36 -46 -54 95 -96 97 0
36 -46 -54 -95 96 97 0
36 -46 -54 -95 -96 -97 0
-36 46 54 95 96 97 0
-36 46 54 95 -96 -97 0
-36 46 54 -95 96 -97 0
-36 46 54 -95 -96 97 0
-36 46 -54 95 96 -97 0
-36 46 -54 95 -96 97 0
-36 46 -54 -95 96 97 0
-36 46 -54 -95 -96 -97 0
-36 -46 54 95 96 -97 0
-36 -46 54 95 -96 97 0
-36 -46 54 -95 96 97 0
-36 -46 54 -95 -96 -97 0
-36 -46 -54 95 96 97 0
-36 -46 -54 95 -96 -97 0
-36 -46 -54 -95 96 -97 0
-36 -46 -54 -95 -96 97 0
15 29 98 99 100 -101 0
15 29 98 99 -100 101 0
15 29 98 -99 100 101 0
15 29 98 -99 -100 -101 0
15 29 -98 99 100 101 0
15 29 -98 99 -100 -101 0
15 29 -98 -99 100 -101 0
15 29 -98 -99 -100 101 0
15 -29 98 99 100 101 0
15 -29 98 99 -100 -101 0
15 -29 98 -99 100 -101 0
15 -29 98 -99 -100 101 0
15 -29 -98 99 100 -101 0
15 -29 -98 99 -100 101 0
15 -29 -98 -99 100 101 0
15 -29 -98 -99 -100 -101 0
-15 29 98 99 100 101 0
-15 29 98 99 -100 -101 0
-15 29 98 -99 100 -101 0
-15 29 98 -99 -100 101 0
-15 29 -98 99 100 -101 0
-15 29 -98 99 -100 101 0
-15 29 -98 -99 100 101 0
-15 29 -98 -99 -100 -101 0
-15 -29 98 99 100 -101 0
-15 -29 98 99 -100 101 0
-15 -29 98 -99 100 101 0
-15 -29 98 -99 -100 -101 0
-15 -29 -98 99 100 101 0
-15 -29 -98 99 -100 -101 0
-15 -29 -98 -99 100 -101 0
-15 -29 -98 -99 -100 101 0
3 65 102 103 104 105 0
3 65 102 103 -104 -105 0
3 65 102 -103 104 -105 0
3 65 102 -103 -104 105 0
3 65 -102 103 104 -105 0
3 65 -102 103 -104 105 0
3 65 -102 -103 104 105 0
3 65 -102 -103 -104 -105 0
3 -65 102 103 104 -105 0
3 -65 102 103 -104 105 0
3 -65 102 -103 104 105 0
3 -65 102 -103 -104 -105 0
3 -65 -102 103 104 105 0
3 -65 -102 103 -104 -105 0
3 -65 -102 -103 104 -105 0
3 -65 -102 -103 -104 105 0
-3 65 102 103 104 -105 0
-3 65 102 103 -104 105 0
-3 65 102 -103 104 105 0
-3 65 102 -103 -104 -105 0
-3 65 -102 103 104 105 0
-3 65 -102 103 -104 -105 0
-3 65 -102 -103 104 -105 0
-3 65 -102 -103 -104 105 0
-3 -65 102 103 104 105 0
-3 -65 102 103 -104 -105 0
-3 -65 102 -103 104 -105 0
-3 -65 102 -103 -104 105 0
-3 -65 -102 103 104 -105 0
-3 -65 -102 103 -104 105 0
-3 -65 -102 -103 104 105 0
-3 -65 -102 -103 -104 -105 0
49 60 66 106 107 108 0
49 60 66 106 -107 -108 0
49 60 66 -106 107 -108 0
49 60 66 -106 -107 108 0
49 60 -66 106 107 -108 0
49 60 -66 106 -107 108 0
49 60 -66 -106 107 108 0
49 60 -66 -106 -107 -108 0
49 -60 66 106 107 -108 0
49 -60 66 106 -107 108 0
49 -60 66 -106 107 108 0
49 -60 66 -106 -107 -108 0
49 -60 -66 106 107 108 0
49 -60 -66 106 -107 -108 0
49 -60 -66 -106 107 -108 0
49 -60 -66 -106 -107 108 0
-49 60 66 106 107 -108 0
-49 60 66 106 -107 108 0
-49 60 66 -106 107 108 0
-49 60 66 -106 -107 -108 0
-49 60 -66 106 107 108 0
-49 60 -66 106 -107 -108 0
-49 60 -66 -106 107 -108 0
-49 60 -66 -106 -107 108 0
-49 -60 66 106 107 108 0
-49 -60 66 106 -107 -108 0
-49 -60 66 -106 107 -108 0
-49 -60 66 -106 -107 108 0
-49 -60 -66 106 107 -108 0
-49 -60 -66 106 -107 108 0
-49 -60 -66 -106 107 108 0
-49 -60 -66 -106 -107 -108 0
37 47 50 109 110 111 0
37 47 50 109 -110 -111 0
37 47 50 -109 110 -111 0
37 47 50 -109 -110 111 0
37 47 -50 109 110 -111 0
37 47 -50 109 -110 111 0
37 47 -50 -109 110 111 0
37 47 -50 -109 -110 -111 0
37 -47 50 109 110 -111 0
37 -47 50 109 -110 111 0
37 -47 50 -109 110 111 0
37 -47 50 -109 -110 -111 0
37 -47 -50 109 110 111 0
37 -47 -50 109 -110 -111 0
37 -47 -50 -109 110 -111 0
37 -47 -50 -109 -110 111 0
-37 47 50 109 110 -111 0
-37 47 50 109 -110 111 0
-37 47 50 -109 110 111 0
-37 47 50 -109 -110 -111 0
-37 47 -50 109 110 111 0
-37 47 -50 109 -110 -111 0
-37 47 -50 -109 110 -111 0
-37 47 -50 -109 -110 111 0
-37 -47 50 109 110 111 0
-37 -47 50 109 -110 -111 0
-37 -47 50 -109 110 -111 0
-37 -47 50 -109 -110 111 0
-37 -47 -50 109 110 -111 0
-37 -47 -50 109 -110 111 0
-37 -47 -50 -109 110 111 0
-37 -47 -50 -109 -110 -111 0
9 75 85 98 112 113 0
9 75 85 98 -112 -113 0
9 75 85 -98 112 -113 0
9 75 85 -98 -112 113 0
9 75 -85 98 112 -113 0
9 75 -85 98 -112 113 0
9 75 -85 -98 112 113 0
9 75 -85 -98 -112 -113 0
9 -75 85 98 112 -113 0
9 -75 85 98 -112 113 0
9 -75 85 -98 112 113 0
9 -75 85 -98 -112 -113 0
9 -75 -85 98 112 113 0
9 -75 -85 98 -112 -113 0
9 -75 -85 -98 112 -113 0
9 -75 -85 -98 -112 113 0
-9 75 85 98 112 -113 0
-9 75 85 98 -112 113 0
-9 75 85 -98 112 113 0
-9 75 85 -98 -112 -113 0
-9 75 -85 98 112 113 0
-9 75 -85 98 -112 -113 0
-9 75 -85 -98 112 -113 0
-9 75 -85 -98 -112 113 0
-9 -75 85 98 112 113 0
-9 -75 85 98 -112 -113 0
-9 -75 85 -98 112 -113 0
-9 -75 85 -98 -112 113 0
-9 -75 -85 98 112 -113 0
-9 -75 -85 98 -112 113 0
-9 -75 -85 -98 112 113 0
-9 -75 -85 -98 -112 -113 0
41 86 99 114 115 -116 0
41 86 99 114 -115 116 0
41 86 99 -114 115 116 0
41 86 99 -114 -115 -116 0
41 86 -99 114 115 116 0
41 86 -99 114 -115 -116 0
41 86 -99 -114 115 -116 0
41 86 -99 -114 -115 116 0
41 -86 99 114 115 116 0
41 -86 99 114 -115 -116 0
41 -86 99 -114 115 -116 0
41 -86 99 -114 -115 116 0
41 -86 -99 114 115 -116 0
41 -86 -99 114 -115 116 0
41 -86 -99 -114 115 116 0
41 -86 -99 -114 -115 -116 0
-41 86 99 114 115 116 0
-41 86 99 114 -115 -116 0
-41 86 99 -114 115 -116 0
-41 86 99 -114 -115 116 0
-41 86 -99 114 115 -116 0
-41 86 -99 114 -115 116 0
-41 86 -99 -114 115 116 0
-41 86 -99 -114 -115 -116 0
-41 -86 99 114 115 -116 0
-41 -86 99 114 -115 116 0
-41 -86 99 -114 115 116 0
-41 -86 99 -114 -115 -116 0
-41 -86 -99 114 115 116 0
-41 -86 -99 114 -115 -116 0
-41 -86 -99 -114 115 -116 0
-41 -86 -99 -114 -115 116 0
42 51 55 88 117 -118 0
42 51 55 88 -117 118 0
42 51 55 -88 117 118 0
42 51 55 -88 -117 -118 0
42 51 -55 88 117 118 0
42 51 -55 88 -117 -118 0
42 51 -55 -88 117 -118 0
42 51 -55 -88 -117 118 0
42 -51 55 88 117 118 0
42 -51 55 88 -117 -118 0
42 -51 55 -88 117 -118 0
42 -51 55 -88 -117 118 0
42 -51 -55 88 117 -118 0
42 -51 -55 88 -117 118 0
42 -51 -55 -88 117 118 0
42 -51 -55 -88 -117 -118 0
-42 51 55 88 117 118 0
-42 51 55 88 -117 -118 0
-42 51 55 -88 117 -118 0
-42 51 55 -88 -117 118 0
-42 51 -55 88 117 -118 0
-42 51 -55 88 -117 118 0
-42 51 -55 -88 117 118 0
-42 51 -55 -88 -117 -118 0
-42 -51 55 88 117 -118 0
-42 -51 55 88 -117 118 0
-42 -51 55 -88 117 118 0
-42 -51 55 -88 -117 -118 0
-42 -51 -55 88 117 118 0
-42 -51 -55 88 -117 -118 0
-42 -51 -55 -88 117 -118 0
-42 -51 -55 -88 -117 118 0
48 70 102 114 119 120 0
48 70 102 114 -119 -120 0
48 70 102 -114 119 -120 0
48 70 102 -114 -119 120 0
48 70 -102 114 119 -120 0
48 70 -102 114 -119 120 0
48 70 -102 -114 119 120 0
48 70 -102 -114 -119 -120 0
48 -70 102 114 119 -120 0
48 -70 102 114 -119 120 0
48 -70 102 -114 119 120 0
48 -70 102 -114 -119 -120 0
48 -70 -102 114 119 120 0
48 -70 -102 114 -119 -120 0
48 -70 -102 -114 119 -120 0
48 -70 -102 -114 -119 120 0
-48 70 102 114 119 -120 0
-48 70 102 114 -119 120 0
-48 70 102 -114 119 120 0
-48 70 102 -114 -119 -120 0
-48 70 -102 114 119 120 0
-48 70 -102 114 -119 -120 0
-48 70 -102 -114 119 -120 0
-48 70 -102 -114 -119 120 0
-48 -70 102 114 119 120 0
-48 -70 102 114 -119 -120 0
-48 -70 102 -114 119 -120 0
-48 -70 102 -114 -119 120 0
-48 -70 -102 114 119 -120 0
-48 -70 -102 114 -119 120 0
-48 -70 -102 -114 119 120 0
-48 -70 -102 -114 -119 -120 0
56 95 103 109 121 122 0
56 95 103 109 -121 -122 0
56 95 103 -109 121 -122 0
56 95 103 -109 -121 122 0
56 95 -103 109 121 -122 0
56 95 -103 109 -121 122 0
56 95 -103 -109 121 122 0
56 95 -103 -109 -121 -122 0
56 -95 103 109 121 -122 0
56 -95 103 109 -121 122 0
56 -95 103 -109 121 122 0
56 -95 103 -109 -121 -122 0
56 -95 -103 109 121 122 0
56 -95 -103 109 -121 -122 0
56 -95 -103 -109 121 -122 0
56 -95 -103 -109 -121 122 0
-56 95 103 109 121 -122 0
-56 95 103 109 -121 122 0
-56 95 103 -109 121 122 0
-56 95 103 -109 -121 -122 0
-56 95 -103 109 121 122 0
-56 95 -103 109 -121 -122 0
-56 95 -103 -109 121 -122 0
-56 95 -103 -109 -121 122 0
-56 -95 103 109 121 122 0
-56 -95 103 109 -121 -122 0
-56 -95 103 -109 121 -122 0
-56 -95 103 -109 -121 122 0
-56 -95 -103 109 121 -122 0
-56 -95 -103 109 -121 122 0
-56 -95 -103 -109 121 122 0
-56 -95 -103 -109 -121 -122 0
33 61 123 124 125 -126 0
33 61 123 124 -125 126 0
33 61 123 -124 125 126 0
33 61 123 -124 -125 -126 0
33 61 -123 124 125 126 0
33 61 -123 124 -125 -126 0
33 61 -123 -124 125 -126 0
33 61 -123 -124 -125 126 0
33 -61 123 124 125 126 0
33 -61 123 124 -125 -126 0
33 -61 123 -124 125 -126 0
33 -61 123 -124 -125 126 0
33 -61 -123 124 125 -126 0
33 -61 -123 124 -125 126 0
33 -61 -123 -124 125 126 0
33 -61 -123 -124 -125 -126 0
-33 61 123 124 125 126 0
-33 61 123 124 -125 -126 0
-33 61 123 -124 125 -126 0
-33 61 123 -124 -125 126 0
-33 61 -123 124 125 -126 0
-33 61 -123 124 -125 126 0
-33 61 -123 -124 125 126 0
-33 61 -123 -124 -125 -126 0
-33 -61 123 124 125 -126 0
-33 -61 123 124 -125 126 0
-33 -61 123 -124 125 126 0
-33 -61 123 -124 -125 -126 0
-33 -61 -123 124 125 126 0
-33 -61 -123 124 -125 -126 0
-33 -61 -123 -124 125 -126 0
-33 -61 -123 -124 -125 126 0
4 16 34 62 123 -127 0
4 16 34 62 -123 127 0
4 16 34 -62 123 127 0
4 16 34 -62 -123 -127 0
4 16 -34 62 123 127 0
4 16 -34 62 -123 -127 0
4 16 -34 -62 123 -127 0
4 16 -34 -62 -123 127 0
4 -16 34 62 123 127 0
4 -16 34 62 -123 -127 0
4 -16 34 -62 123 -127 0
4 -16 34 -62 -123 127 0
4 -16 -34 62 123 -127 0
4 -16 -34 62 -123 127 0
4 -16 -34 -62 123 127 0
4 -16 -34 -62 -123 -127 0
-4 16 34 62 123 127 0
-4 16 34 62 -123 -127 0
-4 16 34 -62 123 -127 0
-4 16 34 -62 -123 127 0
-4 16 -34 62 123 -127 0
-4 16 -34 62 -123 127 0
-4 16 -34 -62 123 127 0
-4 16 -34 -62 -123 -127 0
-4 -16 34 62 123 -127 0
-4 -16 34 62 -123 127 0
-4 -16 34 -62 123 127 0
-4 -16 34 -62 -123 -127 0
-4 -16 -34 62 123 127 0
-4 -16 -34 62 -123 -127 0
-4 -16 -34 -62 123 -127 0
-4 -16 -34 -62 -123 127 0
23 110 128 129 130 131 0
23 110 128 129 -130 -131 0
23 110 128 -129 130 -131 0
23 110 128 -129 -130 131 0
23 110 -128 129 130 -131 0
23 110 -128 129 -130 131 0
23 110 -128 -129 130 131 0
23 110 -128 -129 -130 -131 0
23 -110 128 129 130 -131 0
23 -110 128 129 -130 131 0
23 -110 128 -129 130 131 0
23 -110 128 -129 -130 -131 0
23 -110 -128 129 130 131 0
23 -110 -128 129 -130 -131 0
23 -110 -128 -129 130 -131 0
23 -110 -128 -129 -130 131 0
-23 110 128 129 130 -131 0
-23 110 128 129 -130 131 0
-23 110 128 -129 130 131 0
-23 110 128 -129 -130 -131 0
-23 110 -128 129 130 131 0
-23 110 -128 129 -130 -131 0
-23 110 -128 -129 130 -131 0
-23 110 -128 -129 -130 131 0
-23 -110 128 129 130 131 0
-23 -110 128 129 -130 -131 0
-23 -110 128 -129 130 -131 0
-23 -110 128 -129 -130 131 0
-23 -110 -128 129 130 -131 0
-23 -110 -128 129 -130 131 0
-23 -110 -128 -129 130 131 0
-23 -110 -128 -129 -130 -131 0
30 38 128 132 133 -134 0
30 38 128 132 -133 134 0
30 38 128 -132 133 134 0
30 38 128 -132 -133 -134 0
30 38 -128 132 133 134 0
30 38 -128 132 -133 -134 0
30 38 -128 -132 133 -134 0
30 38 -128 -132 -133 134 0
30 -38 128 132 133 134 0
30 -38 128 132 -133 -134 0
30 -38 128 -132 133 -134 0
30 -38 128 -132 -133 134 0
30 -38 -128 132 133 -134 0
30 -38 -128 132 -133 134 0
30 -38 -128 -132 133 134 0
30 -38 -128 -132 -133 -134 0
-30 38 128 132 133 134 0
-30 38 128 132 -133 -134 0
-30 38 128 -132 133 -134 0
-30 38 128 -132 -133 134 0
-30 38 -128 132 133 -134 0
-30 38 -128 132 -133 134 0
-30 38 -128 -132 133 134 0
-30 38 -128 -132 -133 -134 0
-30 -38 128 132 133 -134 0
-30 -38 128 132 -133 134 0
-30 -38 128 -132 133 134 0
-30 -38 128 -132 -133 -134 0
-30 -38 -128 132 133 134 0
-30 -38 -128 132 -133 -134 0
-30 -38 -128 -132 133 -134 0
-30 -38 -128 -132 -133 134 0
67 119 127 135 136 -137 0
67 119 127 135 -136 137 0
67 119 127 -135 136 137 0
67 119 127 -135 -136 -137 0
67 119 -127 135 136 137 0
67 119 -127 135 -136 -137 0
67 119 -127 -135 136 -137 0
67 119 -127 -135 -136 137 0
67 -119 127 135 136 137 0
67 -119 127 135 -136 -137 0
67 -119 127 -135 136 -137 0
67 -119 127 -135 -136 137 0
67 -119 -127 135 136 -137 0
67 -119 -127 135 -136 137 0
67 -119 -127 -135 136 137 0
67 -119 -127 -135 -136 -137 0
-67 119 127 135 136 137 0
-67 119 127 135 -136 -137 0
-67 119 127 -135 136 -137 0
-67 119 127 -135 -136 137 0
-67 119 -127 135 136 -137 0
-67 119 -127 135 -136 137 0
-67 119 -127 -135 136 137 0
-67 119 -127 -135 -136 -137 0
-67 -119 127 135 136 -137 0
-67 -119 127 135 -136 137 0
-67 -119 127 -135 136 137 0
-67 -119 127 -135 -136 -137 0
-67 -119 -127 135 136 137 0
-67 -119 -127 135 -136 -137 0
-67 -119 -127 -135 136 -137 0
-67 -119 -127 -135 -136 137 0
71 106 117 124 135 138 0
71 106 117 124 -135 -138 0
71 106 117 -124 135 -138 0
71 106 117 -124 -135 138 0
71 106 -117 124 135 -138 0
71 106 -117 124 -135 138 0
71 106 -117 -124 135 138 0
71 106 -117 -124 -135 -138 0
71 -106 117 124 135 -138 0
71 -106 117 124 -135 138 0
71 -106 117 -124 135 138 0
71 -106 117 -124 -135 -138 0
71 -106 -117 124 135 138 0
71 -106 -117 124 -135 -138 0
71 -106 -117 -124 135 -138 0
71 -106 -117 -124 -135 138 0
-71 106 117 124 135 -138 0
-71 106 117 124 -135 138 0
-71 106 117 -124 135 138 0
-71 106 117 -124 -135 -138 0
-71 106 -117 124 135 138 0
-71 106 -117 124 -135 -138 0
-71 106 -117 -124 135 -138 0
-71 106 -117 -124 -135 138 0
-71 -106 117 124 135 138 0
-71 -106 117 124 -135 -138 0
-71 -106 117 -124 135 -138 0
-71 -106 117 -124 -135 138 0
-71 -106 -117 124 135 -138 0
-71 -106 -117 124 -135 138 0
-71 -106 -117 -124 135 138 0
-71 -106 -117 -124 -135 -138 0
52 63 100 104 115 125 0
52 63 100 104 -115 -125 0
52 63 100 -104 115 -125 0
52 63 100 -104 -115 125 0
52 63 -100 104 115 -125 0
52 63 -100 104 -115 125 0
52 63 -100 -104 115 125 0
52 63 -100 -104 -115 -125 0
52 -63 100 104 115 -125 0
52 -63 100 104 -115 125 0
52 -63 100 -104 115 125 0
52 -63 100 -104 -115 -125 0
52 -63 -100 104 115 125 0
52 -63 -100 104 -115 -125 0
52 -63 -100 -104 115 -125 0
52 -63 -100 -104 -115 125 0
-52 63 100 104 115 -125 0
-52 63 100 104 -115 125 0
-52 63 100 -104 115 125 0
-52 63 100 -104 -115 -125 0
-52 63 -100 104 115 125 0
-52 63 -100 104 -115 -125 0
-52 63 -100 -104 115 -125 0
-52 63 -100 -104 -115 125 0
-52 -63 100 104 115 125 0
-52 -63 100 104 -115 -125 0
-52 -63 100 -104 115 -125 0
-52 -63 100 -104 -115 125 0
-52 -63 -100 104 115 -125 0
-52 -63 -100 104 -115 125 0
-52 -63 -100 -104 115 125 0
-52 -63 -100 -104 -115 -125 0
43 76 79 89 91 96 0
43 76 79 89 -91 -96 0
43 76 79 -89 91 -96 0
43 76 79 -89 -91 96 0
43 76 -79 89 91 -96 0
43 76 -79 89 -91 96 0
43 76 -79 -89 91 96 0
43 76 -79 -89 -91 -96 0
43 -76 79 89 91 -96 0
43 -76 79 89 -91 96 0
43 -76 79 -89 91 96 0
43 -76 79 -89 -91 -96 0
43 -76 -79 89 91 96 0
43 -76 -79 89 -91 -96 0
43 -76 -79 -89 91 -96 0
43 -76 -79 -89 -91 96 0
-43 76 79 89 91 -96 0
-43 76 79 89 -91 96 0
-43 76 79 -89 91 96 0
-43 76 79 -89 -91 -96 0
-43 76 -79 89 91 96 0
-43 76 -79 89 -91 -96 0
-43 76 -79 -89 91 -96 0
-43 76 -79 -89 -91 96 0
-43 -76 79 89 91 96 0
-43 -76 79 89 -91 -96 0
-43 -76 79 -89 91 -96 0
-43 -76 79 -89 -91 96 0
-43 -76 -79 89 91 -96 0
-43 -76 -79 89 -91 96 0
-43 -76 -79 -89 91 96 0
-43 -76 -79 -89 -91 -96 0
57 112 132 139 140 141 0
57 112 132 139 -140 -141 0
57 112 132 -139 140 -141 0
57 112 132 -139 -140 141 0
57 112 -132 139 140 -141 0
57 112 -132 139 -140 141 0
57 112 -132 -139 140 141 0
57 112 -132 -139 -140 -141 0
57 -112 132 139 140 -141 0
57 -112 132 139 -140 141 0
57 -112 132 -139 140 141 0
57 -112 132 -139 -140 -141 0
57 -112 -132 139 140 141 0
57 -112 -132 139 -140 -141 0
57 -112 -132 -139 140 -141 0
57 -112 -132 -139 -140 141 0
-57 112 132 139 140 -141 0
-57 112 132 139 -140 141 0
-57 112 132 -139 140 141 0
-57 112 132 -139 -140 -141 0
-57 112 -132 139 140 141 0
-57 112 -132 139 -140 -141 0
-57 112 -132 -139 140 -141 0
-57 112 -132 -139 -140 141 0
-57 -112 132 139 140 141 0
-57 -112 132 139 -140 -141 0
-57 -112 132 -139 140 -141 0
-57 -112 132 -139 -140 141 0
-57 -112 -132 139 140 -141 0
-57 -112 -132 139 -140 141 0
-57 -112 -132 -139 140 141 0
-57 -112 -132 -139 -140 -141 0
72 77 107 121 142 143 0
72 77 107 121 -142 -143 0
72 77 107 -121 142 -143 0
72 77 107 -121 -142 143 0
72 77 -107 121 142 -143 0
72 77 -107 121 -142 143 0
72 77 -107 -121 142 143 0
72 77 -107 -121 -142 -143 0
72 -77 107 121 142 -143 0
72 -77 107 121 -142 143 0
72 -77 107 -121 142 143 0
72 -77 107 -121 -142 -143 0
72 -77 -107 121 142 143 0
72 -77 -107 121 -142 -143 0
72 -77 -107 -121 142 -143 0
72 -77 -107 -121 -142 143 0
-72 77 107 121 142 -143 0
-72 77 107 121 -142 143 0
-72 77 107 -121 142 143 0
-72 77 107 -121 -142 -143 0
-72 77 -107 121 142 143 0
-72 77 -107 121 -142 -143 0
-72 77 -107 -121 142 -143 0
-72 77 -107 -121 -142 143 0
-72 -77 107 121 142 143 0
-72 -77 107 121 -142 -143 0
-72 -77 107 -121 142 -143 0
-72 -77 107 -121 -142 143 0
-72 -77 -107 121 142 -143 0
-72 -77 -107 121 -142 143 0
-72 -77 -107 -121 142 143 0
-72 -77 -107 -121 -142 -143 0
5 68 133 139 142 -144 0
5 68 133 139 -142 144 0
5 68 133 -139 142 144 0
5 68 133 -139 -142 -144 0
5 68 -133 139 142 144 0
5 68 -133 139 -142 -144 0
5 68 -133 -139 142 -144 0
5 68 -133 -139 -142 144 0
5 -68 133 139 142 144 0
5 -68 133 139 -142 -144 0
5 -68 133 -139 142 -144 0
5 -68 133 -139 -142 144 0
5 -68 -133 139 142 -144 0
5 -68 -133 139 -142 144 0
5 -68 -133 -139 142 144 0
5 -68 -133 -139 -142 -144 0
-5 68 133 139 142 144 0
-5 68 133 139 -142 -144 0
-5 68 133 -139 142 -144 0
-5 68 133 -139 -142 144 0
-5 68 -133 139 142 -144 0
-5 68 -133 139 -142 144 0
-5 68 -133 -139 142 144 0
-5 68 -133 -139 -142 -144 0
-5 -68 133 139 142 -144 0
-5 -68 133 139 -142 144 0
-5 -68 133 -139 142 144 0
-5 -68 133 -139 -142 -144 0
-5 -68 -133 139 142 144 0
-5 -68 -133 139 -142 -144 0
-5 -68 -133 -139 142 -144 0
-5 -68 -133 -139 -142 144 0
10 24 35 129 144 145 0
10 24 35 129 -144 -145 0
10 24 35 -129 144 -145 0
10 24 35 -129 -144 145 0
10 24 -35 129 144 -145 0
10 24 -35 129 -144 145 0
10 24 -35 -129 144 145 0
10 24 -35 -129 -144 -145 0
10 -24 35 129 144 -145 0
10 -24 35 129 -144 145 0
10 -24 35 -129 144 145 0
10 -24 35 -129 -144 -145 0
10 -24 -35 129 144 145 0
10 -24 -35 129 -144 -145 0
10 -24 -35 -129 144 -145 0
10 -24 -35 -129 -144 145 0
-10 24 35 129 144 -145 0
-10 24 35 129 -144 145 0
-10 24 35 -129 144 145 0
-10 24 35 -129 -144 -145 0
-10 24 -35 129 144 145 0
-10 24 -35 129 -144 -145 0
-10 24 -35 -129 144 -145 0
-10 24 -35 -129 -144 145 0
-10 -24 35 129 144 145 0
-10 -24 35 129 -144 -145 0
-10 -24 35 -129 144 -145 0
-10 -24 35 -129 -144 145 0
-10 -24 -35 129 144 -145 0
-10 -24 -35 129 -144 145 0
-10 -24 -35 -129 144 145 0
-10 -24 -35 -129 -144 -145 0
73 113 122 130 146 -147 0
73 113 122 130 -146 147 0
73 113 122 -130 146 147 0
73 113 122 -130 -146 -147 0
73 113 -122 130 146 147 0
73 113 -122 130 -146 -147 0
73 113 -122 -130 146 -147 0
73 113 -122 -130 -146 147 0
73 -113 122 130 146 147 0
73 -113 122 130 -146 -147 0
73 -113 122 -130 146 -147 0
73 -113 122 -130 -146 147 0
73 -113 -122 130 146 -147 0
73 -113 -122 130 -146 147 0
73 -113 -122 -130 146 147 0
73 -113 -122 -130 -146 -147 0
-73 113 122 130 146 147 0
-73 113 122 130 -146 -147 0
-73 113 122 -130 146 -147 0
-73 113 122 -130 -146 147 0
-73 113 -122 130 146 -147 0
-73 113 -122 130 -146 147 0
-73 113 -122 -130 146 147 0
-73 113 -122 -130 -146 -147 0
-73 -113 122 130 146 -147 0
-73 -113 122 130 -146 147 0
-73 -113 122 -130 146 147 0
-73 -113 122 -130 -146 -147 0
-73 -113 -122 130 146 147 0
-73 -113 -122 130 -146 -147 0
-73 -113 -122 -130 146 -147 0
-73 -113 -122 -130 -146 147 0
17 44 105 134 140 143 0
17 44 105 134 -140 -143 0
17 44 105 -134 140 -143 0
17 44 105 -134 -140 143 0
17 44 -105 134 140 -143 0
17 44 -105 134 -140 143 0
17 44 -105 -134 140 143 0
17 44 -105 -134 -140 -143 0
17 -44 105 134 140 -143 0
17 -44 105 134 -140 143 0
17 -44 105 -134 140 143 0
17 -44 105 -134 -140 -143 0
17 -44 -105 134 140 143 0
17 -44 -105 134 -140 -143 0
17 -44 -105 -134 140 -143 0
17 -44 -105 -134 -140 143 0
-17 44 105 134 140 -143 0
-17 44 105 134 -140 143 0
-17 44 105 -134 140 143 0
-17 44 105 -134 -140 -143 0
-17 44 -105 134 140 143 0
-17 44 -105 134 -140 -143 0
-17 44 -105 -134 140 -143 0
-17 44 -105 -134 -140 143 0
-17 -44 105 134 140 143 0
-17 -44 105 134 -140 -143 0
-17 -44 105 -134 140 -143 0
-17 -44 105 -134 -140 143 0
-17 -44 -105 134 140 -143 0
-17 -44 -105 134 -140 143 0
-17 -44 -105 -134 140 143 0
-17 -44 -105 -134 -140 -143 0
6 39 80 120 148 -149 0
6 39 80 120 -148 149 0
6 39 80 -120 148 149 0
6 39 80 -120 -148 -149 0
6 39 -80 120 148 149 0
6 39 -80 120 -148 -149 0
6 39 -80 -120 148 -149 0
6 39 -80 -120 -148 149 0
6 -39 80 120 148 149 0
6 -39 80 120 -148 -149 0
6 -39 80 -120 148 -149 0
6 -39 80 -120 -148 149 0
6 -39 -80 120 148 -149 0
6 -39 -80 120 -148 149 0
6 -39 -80 -120 148 149 0
6 -39 -80 -120 -148 -149 0
-6 39 80 120 148 149 0
-6 39 80 120 -148 -149 0
-6 39 80 -120 148 -149 0
-6 39 80 -120 -148 149 0
-6 39 -80 120 148 -149 0
-6 39 -80 120 -148 149 0
-6 39 -80 -120 148 149 0
-6 39 -80 -120 -148 -149 0
-6 -39 80 120 148 -149 0
-6 -39 80 120 -148 149 0
-6 -39 80 -120 148 149 0
-6 -39 80 -120 -148 -149 0
-6 -39 -80 120 148 149 0
-6 -39 -80 120 -148 -149 0
-6 -39 -80 -120 148 -149 0
-6 -39 -80 -120 -148 149 0
74 87 92 97 118 148 0
74 87 92 97 -118 -148 0
74 87 92 -97 118 -148 0
74 87 92 -97 -118 148 0
74 87 -92 97 118 -148 0
74 87 -92 97 -118 148 0
74 87 -92 -97 118 148 0
74 87 -92 -97 -118 -148 0
74 -87 92 97 118 -148 0
74 -87 92 97 -118 148 0
74 -87 92 -97 118 148 0
74 -87 92 -97 -118 -148 0
74 -87 -92 97 118 148 0
74 -87 -92 97 -118 -148 0
74 -87 -92 -97 118 -148 0
74 -87 -92 -97 -118 148 0
-74 87 92 97 118 -148 0
-74 87 92 97 -118 148 0
-74 87 92 -97 118 148 0
-74 87 92 -97 -118 -148 0
-74 87 -92 97 118 148 0
-74 87 -92 97 -118 -148 0
-74 87 -92 -97 118 -148 0
-74 87 -92 -97 -118 148 0
-74 -87 92 97 118 148 0
-74 -87 92 97 -118 -148 0
-74 -87 92 -97 118 -148 0
-74 -87 92 -97 -118 148 0
-74 -87 -92 97 118 -148 0
-74 -87 -92 97 -118 148 0
-74 -87 -92 -97 118 148 0
-74 -87 -92 -97 -118 -148 0
18 81 101 108 136 -146 0
18 81 101 108 -136 146 0
18 81 101 -108 136 146 0
18 81 101 -108 -136 -146 0
18 81 -101 108 136 146 0
18 81 -101 108 -136 -146 0
18 81 -101 -108 136 -146 0
18 81 -101 -108 -136 146 0
18 -81 101 108 136 146 0
18 -81 101 108 -136 -146 0
18 -81 101 -108 136 -146 0
18 -81 101 -108 -136 146 0
18 -81 -101 108 136 -146 0
18 -81 -101 108 -136 146 0
18 -81 -101 -108 136 146 0
18 -81 -101 -108 -136 -146 0
-18 81 101 108 136 146 0
-18 81 101 108 -136 -146 0
-18 81 101 -108 136 -146 0
-18 81 101 -108 -136 146 0
-18 81 -101 108 136 -146 0
-18 81 -101 108 -136 146 0
-18 81 -101 -108 136 146 0
-18 81 -101 -108 -136 -146 0
-18 -81 101 108 136 -146 0
-18 -81 101 108 -136 146 0
-18 -81 101 -108 136 146 0
-18 -81 101 -108 -136 -146 0
-18 -81 -101 108 136 146 0
-18 -81 -101 108 -136 -146 0
-18 -81 -101 -108 136 -146 0
-18 -81 -101 -108 -136 146 0
58 69 82 90 116 -126 0
58 69 82 90 -116 126 0
58 69 82 -90 116 126 0
58 69 82 -90 -116 -126 0
58 69 -82 90 116 126 0
58 69 -82 90 -116 -126 0
58 69 -82 -90 116 -126 0
58 69 -82 -90 -116 126 0
58 -69 82 90 116 126 0
58 -69 82 90 -116 -126 0
58 -69 82 -90 116 -126 0
58 -69 82 -90 -116 126 0
58 -69 -82 90 116 -126 0
58 -69 -82 90 -116 126 0
58 -69 -82 -90 116 126 0
58 -69 -82 -90 -116 -126 0
-58 69 82 90 116 126 0
-58 69 82 90 -116 -126 0
-58 69 82 -90 116 -126 0
-58 69 82 -90 -116 126 0
-58 69 -82 90 116 -126 0
-58 69 -82 90 -116 126 0
-58 69 -82 -90 116 126 0
-58 69 -82 -90 -116 -126 0
-58 -69 82 90 116 -126 0
-58 -69 82 90 -116 126 0
-58 -69 82 -90 116 126 0
-58 -69 82 -90 -116 -126 0
-58 -69 -82 90 116 126 0
-58 -69 -82 90 -116 -126 0
-58 -69 -82 -90 116 -126 0
-58 -69 -82 -90 -116 126 0
11 83 93 111 145 150 0
11 83 93 111 -145 -150 0
11 83 93 -111 145 -150 0
11 83 93 -111 -145 150 0
11 83 -93 111 145 -150 0
11 83 -93 111 -145 150 0
11 83 -93 -111 145 150 0
11 83 -93 -111 -145 -150 0
11 -83 93 111 145 -150 0
11 -83 93 111 -145 150 0
11 -83 93 -111 145 150 0
11 -83 93 -111 -145 -150 0
11 -83 -93 111 145 150 0
11 -83 -93 111 -145 -150 0
11 -83 -93 -111 145 -150 0
11 -83 -93 -111 -145 150 0
-11 83 93 111 145 -150 0
-11 83 93 111 -145 150 0
-11 83 93 -111 145 150 0
-11 83 93 -111 -145 -150 0
-11 83 -93 111 145 150 0
-11 83 -93 111 -145 -150 0
-11 83 -93 -111 145 -150 0
-11 83 -93 -111 -145 150 0
-11 -83 93 111 145 150 0
-11 -83 93 111 -145 -150 0
-11 -83 93 -111 145 -150 0
-11 -83 93 -111 -145 150 0
-11 -83 -93 111 145 -150 0
-11 -83 -93 111 -145 150 0
-11 -83 -93 -111 145 150 0
-11 -83 -93 -111 -145 -150 0
12 78 131 137 138 -150 0
12 78 131 137 -138 150 0
12 78 131 -137 138 150 0
12 78 131 -137 -138 -150 0
12 78 -131 137 138 150 0
12 78 -131 137 -138 -150 0
12 78 -131 -137 138 -150 0
12 78 -131 -137 -138 150 0
12 -78 131 137 138 150 0
12 -78 131 137 -138 -150 0
12 -78 131 -137 138 -150 0
12 -78 131 -137 -138 150 0
12 -78 -131 137 138 -150 0
12 -78 -131 137 -138 150 0
12 -78 -131 -137 138 150 0
12 -78 -131 -137 -138 -150 0
-12 78 131 137 138 150 0
-12 78 131 137 -138 -150 0
-12 78 131 -137 138 -150 0
-12 78 131 -137 -138 150 0
-12 78 -131 137 138 -150 0
-12 78 -131 137 -138 150 0
-12 78 -131 -137 138 150 0
-12 78 -131 -137 -138 -150 0
-12 -78 131 137 138 -150 0
-12 -78 131 137 -138 150 0
-12 -78 131 -137 138 150 0
-12 -78 131 -137 -138 -150 0
-12 -78 -131 137 138 150 0
-12 -78 -131 137 -138 -150 0
-12 -78 -131 -137 138 -150 0
-12 -78 -131 -137 -138 150 0
40 53 94 141 147 149 0
40 53 94 141 -147 -149 0
40 53 94 -141 147 -149 0
40 53 94 -141 -147 149 0
40 53 -94 141 147 -149 0
40 53 -94 141 -147 149 0
40 53 -94 -141 147 149 0
40 53 -94 -141 -147 -149 0
40 -53 94 141 147 -149 0
40 -53 94 141 -147 149 0
40 -53 94 -141 147 149 0
40 -53 94 -141 -147 -149 0
40 -53 -94 141 147 149 0
40 -53 -94 141 -147 -149 0
40 -53 -94 -141 147 -149 0
40 -53 -94 -141 -147 149 0
-40 53 94 141 147 -149 0
-40 53 94 141 -147 149 0
-40 53 94 -141 147 149 0
-40 53 94 -141 -147 -149 0
-40 53 -94 141 147 149 0
-40 53 -94 141 -147 -149 0
-40 53 -94 -141 147 -149 0
-40 53 -94 -141 -147 149 0
-40 -53 94 141 147 149 0
-40 -53 94 141 -147 -149 0
-40 -53 94 -141 147 -149 0
-40 -53 94 -141 -147 149 0
-40 -53 -94 141 147 -149 0
-40 -53 -94 141 -147 149 0
-40 -53 -94 -141 147 149 0
-40 -53 -94 -141 -147 -149 0
